12 65 196 29 193 145 17 45 173 84 169 7 115 124 153 123 116 75 127 141 134 61 191 158 36 142 118 183 150 34 175 199 133 170 20 21 147 181 3 192 195 131 129 60 50 108 19 165 18 185 13 111 35 143 197 184 41 139 103 83 167 90 155 120 93 112 54 6 101 182 49 31 130 15 82 14 11 105 91 40 28 156 42 168 77 62 107 22 64 70 27 74 179 24 80 135 106 160 73 177 104 99 162 94 109 140 117 66 148 9 189 149 121 32 159 0 59 43 119 85 63 51 81 122 157 39 78 174 154 87 52 46 76 95 164 180 126 53 8 25 55 23 151 89 47 68 178 58 72 163 1 79 194 128 44 172 16 198 86 33 166 125 102 26 69 97 57 137 37 88 30 67 2 38 10 176 146 138 186 136 92 113 152 187 161 5 188 71 100 4 132 144 98 48 96 110 56 114 171 190 

